(set-logic HORN)
(declare-rel inv1 ( (Array Int Int) Int Int))(declare-rel inv2 ( (Array Int Int) (Array Int Int) Int Int))(declare-rel fail ( ))(forall ((a (Array Int Int)) (N Int)) (! (inv1 a 0 N) ))(forall ((a (Array Int Int)) (i Int) (a1 (Array Int Int)) (i1 Int) (N Int))
  (! (=> (and (inv1 a i N) (< i N) (= i1 (+ i 1)) (= (store a i i) a1))
         (inv1 a1 i1 N))
     ))(forall ((i Int) (a (Array Int Int)) (b (Array Int Int)) (N Int))
  (! (=> (and (inv1 a i N) (not (< i N))) (inv2 a b 0 N)) ))(forall ((i Int)
         (b (Array Int Int))
         (a (Array Int Int))
         (b1 (Array Int Int))
         (i1 Int)
         (N Int))
  (! (let ((a!1 (and (inv2 a b i N)
                     (< i N)
                     (= i1 (+ i 1))
                     (= (store b (- N i1) i1) b1))))
       (=> a!1 (inv2 a b1 i1 N)))
     ))(forall ((i Int) (N Int) (a (Array Int Int)) (b (Array Int Int)) (i1 Int))
  (! (let ((a!1 (not (= N (+ (select a i1) (select b i1))))))
       (=> (and (inv2 a b i N) (not (< i N)) (<= 0 i1) (< i1 N) a!1) fail))
     ))(assert (not fail))
(check-sat)